n = 15;
m = 41;

max_len = 7;
word_lens = [ 4, 4, 4, 5, 5, 5, 5, 5, 5, 5, 5, 5, 5, 5, 5, 5, 5, 5, 6, 6, 6, 6, 6, 6, 6, 6, 6, 6, 7, 7, 7, 7, 7, 7, 7, 7, 7, 7, 7, 7, 7 ];
words = [| S, K, I, T, E, E, E | S, O, A, P, E, E, E | F, I, L, M, E, E, E | R, A, D, I, O, E, E | S, P, O, O, F, E, E | A, C, T, O, R, E, E | M, O, V, I, E, E, E | C, O, M, I, C, E, E | D, R, A, M, A, E, E | A, A, C, T, A, E, E | S, P, A, I, N, E, E | A, I, R, E, D, E, E | C, A, M, E, O, E, E | G, O, O, F, Y, E, E | C, O, S, B, Y, E, E | T, E, L, L, Y, E, E | O, P, R, A, H, E, E | O, A, T, E, R, E, E | C, O, M, E, D, Y, E | R, E, M, A, K, E, E | S, I, T, C, O, M, E | R, E, R, U, N, S, E | B, R, A, Z, I, L, E | S, E, Q, U, E, L, E | C, A, R, R, E, Y, E | R, U, S, S, I, A, E | A, D, W, A, R, E, E | P, A, R, S, E, R, E | E, P, I, S, O, D, E | N, E, W, H, A, R, T | S, E, R, I, A, L, S | F, R, A, S, I, E, R | S, T, A, R, R, E, D | C, A, R, T, O, O, N | A, I, R, T, I, M, E | C, O, M, P, E, R, E | R, E, A, L, I, T, Y | P, R, O, G, R, A, M | T, V, G, U, I, D, E | D, R, A, M, E, D, Y | M, A, T, I, N, E, E |];
